
Starting CP-SAT solver v9.15.6755
Parameters: random_seed: 2026073238 max_time_in_seconds: 2500 log_search_progress: true cp_model_presolve: true linearization_level: 2 num_search_workers: 4 cp_model_probing_level: 2 symmetry_level: 2

Initial satisfaction model '': (model_fingerprint: 0xba66d3c0f3870808)
#Variables: 724 (608 primary variables)
  - 724 Booleans in [0,1]
#kBoolAnd: 110 (#enforced: 110) (#literals: 330)
#kBoolOr: 110 (#enforced: 110) (#literals: 220)
#kExactlyOne: 87 (#literals: 261)
#kLinear1: 32 (#enforced: 6)
#kLinear2: 336 (#enforced: 336) (#complex_domain: 110)
#kLinear3: 1'600 (#enforced: 6)
#kLinearN: 1'132 (#enforced: 243) (#terms: 9'111)

Starting presolve at 0.00s
  6.53e-04s  0.00e+00d  [DetectDominanceRelations] 
  8.83e-03s  0.00e+00d  [PresolveToFixPoint] #num_loops=3 #num_dual_strengthening=1 
  4.98e-05s  0.00e+00d  [ExtractEncodingFromLinear] #potential_supersets=78 
  3.01e-04s  0.00e+00d  [DetectDuplicateColumns] 
  1.01e-04s  0.00e+00d  [DetectDuplicateConstraints] #duplicates=5 
[Symmetry] Graph for symmetry has 4'870 nodes and 15'740 arcs.
[Symmetry] Symmetry computation done. time: 0.00141289 dtime: 0.00218984
[SAT presolve] num removable Booleans: 220 / 626
[SAT presolve] num trivial clauses: 0
[SAT presolve] [0s] clauses:2'740 literals:7'444 vars:506 one_side_vars:66 simple_definition:1 singleton_clauses:0
[SAT presolve] [0.000238087s] clauses:2'739 literals:7'437 vars:506 one_side_vars:66 simple_definition:1 singleton_clauses:0
[SAT presolve] [0.000616105s] clauses:2'418 literals:6'932 vars:389 one_side_vars:68 simple_definition:24 singleton_clauses:0
  1.24e-04s  0.00e+00d  [DetectDuplicateConstraintsWithDifferentEnforcements] #without_enforcements=1 
  5.84e-03s  2.71e-03d  [Probe] #probed=1'316 #equiv=3 #new_binary_clauses=1'466 
  5.67e-04s  5.99e-04d  [MaxClique] Merged 657 constraints with 1'416 literals into 561 constraints with 1'274 literals
  8.87e-04s  0.00e+00d  [DetectDominanceRelations] 
  3.20e-03s  0.00e+00d  [PresolveToFixPoint] #num_loops=1 #num_dual_strengthening=1 
  1.27e-03s  0.00e+00d  [ProcessAtMostOneAndLinear] 
  1.09e-04s  0.00e+00d  [DetectDuplicateConstraints] 
  9.39e-05s  0.00e+00d  [DetectDuplicateConstraintsWithDifferentEnforcements] 
  6.16e-03s  1.56e-04d  [DetectDominatedLinearConstraints] #relevant_constraints=850 #num_inclusions=738 #num_redundant=7 
  1.53e-04s  0.00e+00d  [DetectDifferentVariables] 
  7.98e-04s  9.34e-05d  [ProcessSetPPC] #relevant_constraints=3'229 #num_inclusions=241 
  3.09e-04s  3.43e-05d  [TransformClausesToExactlyOne] #num_amos=620 #num_clauses=1'767 #num_checked=1'767 
  5.75e-05s  0.00e+00d  [DetectEncodedComplexDomains] 
  4.09e-05s  0.00e+00d  [FindAlmostIdenticalLinearConstraints] 
  9.68e-04s  1.52e-03d  [FindBigAtMostOneAndLinearOverlap] 
  1.44e-03s  1.16e-03d  [FindBigVerticalLinearOverlap] #blocks=7 #saved_nz=298 
  2.03e-04s  2.78e-04d  [FindBigHorizontalLinearOverlap] #linears=474 
  3.46e-04s  2.79e-05d  [MergeClauses] #num_collisions=9 #num_merges=9 #num_saved_literals=36 
  8.85e-04s  0.00e+00d  [DetectDominanceRelations] 
  3.30e-03s  0.00e+00d  [PresolveToFixPoint] #num_loops=2 #num_dual_strengthening=1 
  8.55e-04s  0.00e+00d  [DetectDominanceRelations] 
  3.07e-03s  0.00e+00d  [PresolveToFixPoint] #num_loops=1 #num_dual_strengthening=1 
  2.29e-04s  0.00e+00d  [DetectDuplicateColumns] 
  9.58e-05s  0.00e+00d  [DetectDuplicateConstraints] 
[Symmetry] Graph for symmetry has 4'630 nodes and 14'426 arcs.
[Symmetry] Symmetry computation done. time: 0.00102723 dtime: 0.00145181
[SAT presolve] num removable Booleans: 102 / 512
[SAT presolve] num trivial clauses: 0
[SAT presolve] [0s] clauses:2'347 literals:6'765 vars:484 one_side_vars:160 simple_definition:34 singleton_clauses:0
[SAT presolve] [0.000248205s] clauses:2'345 literals:6'598 vars:484 one_side_vars:172 simple_definition:84 singleton_clauses:0
[SAT presolve] [0.000370144s] clauses:2'217 literals:6'296 vars:481 one_side_vars:197 simple_definition:70 singleton_clauses:0
  1.60e-04s  0.00e+00d  [DetectDuplicateConstraintsWithDifferentEnforcements] 
  6.12e-03s  2.23e-03d  [Probe] #probed=1'328 #new_binary_clauses=1'465 
  5.19e-04s  5.46e-04d  [MaxClique] Merged 555 constraints with 1'219 literals into 547 constraints with 1'213 literals
  8.59e-04s  0.00e+00d  [DetectDominanceRelations] 
  3.16e-03s  0.00e+00d  [PresolveToFixPoint] #num_loops=1 #num_dual_strengthening=1 
  1.18e-03s  0.00e+00d  [ProcessAtMostOneAndLinear] 
  1.27e-04s  0.00e+00d  [DetectDuplicateConstraints] 
  1.04e-04s  0.00e+00d  [DetectDuplicateConstraintsWithDifferentEnforcements] 
  6.48e-04s  5.57e-05d  [DetectDominatedLinearConstraints] #relevant_constraints=844 #num_inclusions=308 
  1.39e-04s  0.00e+00d  [DetectDifferentVariables] 
  7.45e-04s  7.58e-05d  [ProcessSetPPC] #relevant_constraints=3'165 #num_inclusions=111 
  3.08e-04s  3.31e-05d  [TransformClausesToExactlyOne] #num_amos=546 #num_clauses=1'722 #num_checked=1'722 
  1.66e-04s  0.00e+00d  [DetectEncodedComplexDomains] 
  4.70e-05s  1.00e-07d  [FindAlmostIdenticalLinearConstraints] #num_tested_pairs=1 
  8.44e-04s  1.14e-03d  [FindBigAtMostOneAndLinearOverlap] 
  1.31e-03s  9.82e-04d  [FindBigVerticalLinearOverlap] #blocks=4 #saved_nz=288 
  2.03e-04s  2.76e-04d  [FindBigHorizontalLinearOverlap] #linears=474 
  3.81e-04s  2.65e-05d  [MergeClauses] #num_collisions=74 #num_merges=74 #num_saved_literals=189 
  8.72e-04s  0.00e+00d  [DetectDominanceRelations] 
  3.20e-03s  0.00e+00d  [PresolveToFixPoint] #num_loops=2 #num_dual_strengthening=1 
  8.49e-04s  0.00e+00d  [DetectDominanceRelations] 
  3.10e-03s  0.00e+00d  [PresolveToFixPoint] #num_loops=1 #num_dual_strengthening=1 
  1.44e-04s  0.00e+00d  [DetectDuplicateColumns] 
  1.06e-04s  0.00e+00d  [DetectDuplicateConstraints] 
[Symmetry] Graph for symmetry has 4'443 nodes and 13'425 arcs.
[Symmetry] Symmetry computation done. time: 0.00102675 dtime: 0.00135826
[SAT presolve] num removable Booleans: 99 / 509
[SAT presolve] num trivial clauses: 0
[SAT presolve] [0s] clauses:2'206 literals:6'272 vars:481 one_side_vars:197 simple_definition:70 singleton_clauses:0
[SAT presolve] [0.000204113s] clauses:2'206 literals:6'272 vars:481 one_side_vars:197 simple_definition:70 singleton_clauses:0
[SAT presolve] [0.00026637s] clauses:2'206 literals:6'272 vars:481 one_side_vars:197 simple_definition:70 singleton_clauses:0
  1.72e-04s  0.00e+00d  [DetectDuplicateConstraintsWithDifferentEnforcements] 
  6.18e-03s  2.21e-03d  [Probe] #probed=1'328 #new_binary_clauses=1'464 
  5.25e-04s  5.43e-04d  [MaxClique] Merged 545 constraints with 1'205 literals into 544 constraints with 1'204 literals
  9.00e-04s  0.00e+00d  [DetectDominanceRelations] 
  3.21e-03s  0.00e+00d  [PresolveToFixPoint] #num_loops=1 #num_dual_strengthening=1 
  1.13e-03s  0.00e+00d  [ProcessAtMostOneAndLinear] 
  1.33e-04s  0.00e+00d  [DetectDuplicateConstraints] 
  1.18e-04s  0.00e+00d  [DetectDuplicateConstraintsWithDifferentEnforcements] 
  4.70e-04s  4.48e-05d  [DetectDominatedLinearConstraints] #relevant_constraints=846 #num_inclusions=264 
  1.61e-04s  0.00e+00d  [DetectDifferentVariables] 
  7.71e-04s  7.06e-05d  [ProcessSetPPC] #relevant_constraints=3'166 #num_inclusions=79 
  3.25e-04s  3.31e-05d  [TransformClausesToExactlyOne] #num_amos=544 #num_clauses=1'724 #num_checked=1'724 
  1.65e-04s  0.00e+00d  [DetectEncodedComplexDomains] 
  7.61e-05s  0.00e+00d  [FindAlmostIdenticalLinearConstraints] 
  7.60e-04s  8.87e-04d  [FindBigAtMostOneAndLinearOverlap] 
  1.06e-03s  7.32e-04d  [FindBigVerticalLinearOverlap] 
  2.33e-04s  2.76e-04d  [FindBigHorizontalLinearOverlap] #linears=473 
  4.04e-04s  2.65e-05d  [MergeClauses] #num_collisions=75 #num_merges=75 #num_saved_literals=191 
  8.88e-04s  0.00e+00d  [DetectDominanceRelations] 
  3.17e-03s  0.00e+00d  [PresolveToFixPoint] #num_loops=1 #num_dual_strengthening=1 
  3.74e-05s  0.00e+00d  [MergeNoOverlap] 
  3.35e-05s  0.00e+00d  [MergeNoOverlap2D] 

Presolve summary:
  - 33 affine relations were detected.
  - rule 'TODO dual: only one blocking constraint?' was applied 933 times.
  - rule 'TODO linear inclusion: superset is equality' was applied 315 times.
  - rule 'affine: new relation' was applied 33 times.
  - rule 'at_most_one: transformed into max clique' was applied 3 times.
  - rule 'bool_or: implications' was applied 74 times.
  - rule 'bool_or: only one literal' was applied 12 times.
  - rule 'bool_or: removed enforcement literal' was applied 573 times.
  - rule 'deductions: 872 stored' was applied 1 time.
  - rule 'duplicate: merged rhs of linear constraint' was applied 4 times.
  - rule 'duplicate: removed constraint' was applied 5 times.
  - rule 'duplicate: removed enforced constraint' was applied 1 time.
  - rule 'enforcement: false literal' was applied 28 times.
  - rule 'enforcement: true literal' was applied 2 times.
  - rule 'exactly_one: removed literals' was applied 32 times.
  - rule 'exactly_one: satisfied' was applied 3 times.
  - rule 'exactly_one: singleton' was applied 2 times.
  - rule 'exactly_one: size two' was applied 30 times.
  - rule 'incompatible linear: add implication' was applied 144 times.
  - rule 'linear + amo: empty after processing' was applied 6 times.
  - rule 'linear + amo: extracted enforcement literal' was applied 50 times.
  - rule 'linear + amo: trivial linear constraint' was applied 1 time.
  - rule 'linear inclusion: redundant containing constraint' was applied 3 times.
  - rule 'linear inclusion: redundant included constraint' was applied 3 times.
  - rule 'linear inclusion: sparsify superset' was applied 1 time.
  - rule 'linear matrix: common vertical rectangle' was applied 11 times.
  - rule 'linear1: always true' was applied 1 time.
  - rule 'linear1: x in domain' was applied 26 times.
  - rule 'linear2: convert ax + by != cte to clauses' was applied 270 times.
  - rule 'linear2: convert implied ax + by == cte to clauses' was applied 118 times.
  - rule 'linear2: implied ax + by = cte has only one solution' was applied 9 times.
  - rule 'linear: always true' was applied 406 times.
  - rule 'linear: empty' was applied 1 time.
  - rule 'linear: extracted at most one (max)' was applied 1 time.
  - rule 'linear: fixed or dup variables' was applied 877 times.
  - rule 'linear: negative clause' was applied 1'297 times.
  - rule 'linear: negative reified and' was applied 78 times.
  - rule 'linear: never in domain' was applied 6 times.
  - rule 'linear: positive at most one' was applied 26 times.
  - rule 'linear: reduced variable domains' was applied 12 times.
  - rule 'linear: remapped using affine relations' was applied 19 times.
  - rule 'new_bool: integer encoding' was applied 6 times.
  - rule 'presolve: 66 unused variables removed.' was applied 1 time.
  - rule 'presolve: iteration' was applied 3 times.
  - rule 'probing: bool_or reduced to implication' was applied 23 times.
  - rule 'probing: simplified clauses' was applied 10 times.
  - rule 'setppc: bool_or in at_most_one' was applied 7 times.
  - rule 'setppc: removed dominated constraints' was applied 100 times.
  - rule 'variables: add encoding constraint' was applied 6 times.

Presolved satisfaction model '': (model_fingerprint: 0x6b074b01d1b78b3c)
#Variables: 520 (448 primary variables)
  - 509 Booleans in [0,1]
  - 10 in [0,2]
  - 1 in [0,9]
#kAtMostOne: 64 (#literals: 244)
#kBoolAnd: 275 (#enforced: 275) (#literals: 755)
#kBoolAndClauses: 75 (#enforced: 75 #multi: 75) (#literals: 341)
#kBoolOr: 1'574 (#literals: 4'776)
#kExactlyOne: 58 (#literals: 210)
#kLinear1: 12 (#enforced: 12)
#kLinear3: 6 (#enforced: 4)
#kLinearN: 840 (#enforced: 136) (#terms: 5'596)
[Symmetry] Graph for symmetry has 4'219 nodes and 13'379 arcs.
[Symmetry] Symmetry computation done. time: 0.000803496 dtime: 0.0013413

Preloading model.
#Model   0.10s var:520/520 constraints:2904/2904

Starting search at 0.10s with 4 workers.
3 full problem subsolvers: [default_lp, max_lp, no_lp]
1 first solution subsolver: [fj]
2 interleaved subsolvers: [feasibility_pump, rins/rens]
2 helper subsolvers: [neighborhood_helper, synchronization_agent]

#Model   0.22s var:519/520 constraints:2900/2904
#Model   8.92s var:518/520 constraints:2898/2904
#Model  24.87s var:517/520 constraints:2883/2904
#Model 133.93s var:516/520 constraints:2881/2904
#Model 187.77s var:515/520 constraints:2879/2904
#Model 389.04s var:514/520 constraints:2877/2904
#Model 629.38s var:511/520 constraints:2855/2904
#Model 955.80s var:510/520 constraints:2838/2904
#Model 1032.27s var:509/520 constraints:2837/2904
#Model 1118.63s var:506/520 constraints:2819/2904
#Model 1293.45s var:505/520 constraints:2819/2904
#Model 1385.02s var:504/520 constraints:2819/2904
#Model 1467.82s var:503/520 constraints:2818/2904
#Model 2423.99s var:502/520 constraints:2816/2904

Task timing                   n [     min,      max]      avg      dev     time         n [     min,      max]      avg      dev    dtime
        'default_lp':         1 [  41.66m,   41.66m]   41.66m   0.00ns   41.66m         2 [  2.29ms,   40.69m]   20.34m   20.34m   40.69m
  'feasibility_pump':     12386 [962.11us, 145.99ms]   1.70ms   1.35ms   21.04s     12385 [285.15us, 123.81ms] 296.90us   1.11ms    3.68s
                'fj':      8659 [107.55ms, 236.50ms] 143.05ms  10.79ms   20.64m      8659 [100.00ms, 100.13ms] 100.02ms  11.38us   14.43m
            'max_lp':         1 [  41.67m,   41.67m]   41.67m   0.00ns   41.67m         2 [102.14ms,   49.62m]   24.81m   24.81m   49.62m
             'no_lp':         1 [  41.67m,   41.67m]   41.67m   0.00ns   41.67m         2 [  2.18ms,    1.38h]   41.38m   41.38m    1.38h
         'rins/rens':     11019 [922.95us, 236.29ms] 112.41ms  44.10ms   20.64m     11018 [152.00us, 100.33ms]  66.83ms  38.40ms   12.27m

Search stats     Bools   Conflicts    Branches  Restarts  BacktrackToRoot   Backtrack     BoolPropag  IntegerPropag
  'default_lp':    509     226'447   7'163'445     1'260        1'172'356   1'679'067     87'368'208     89'145'437
      'max_lp':    509     158'604   8'577'699       863        1'399'930   1'882'886    102'049'566    109'089'513
       'no_lp':    509  16'434'119  22'760'442    60'904          472'162  16'800'103  1'440'522'488    368'886'833

SAT formula      Fixed  Equiv  Total  VarLeft  BinaryClauses  PermanentClauses  TemporaryClauses
  'default_lp':     18     11    509      480          2'816            60'238             4'927
      'max_lp':     18     11    509      480          2'816            59'485             5'977
       'no_lp':     18     11    509      480          2'816           159'897             7'793

SAT stats        ClassicMinim   LitRemoved  LitRemovedBinary   LitLearned  LitForgotten   Subsumed
  'default_lp':       199'149    3'040'260           937'811    6'333'182     3'973'043     86'002
      'max_lp':       135'546    1'901'820           723'846    3'905'649     2'431'072     50'546
       'no_lp':    14'721'510  265'739'460        80'088'801  414'593'320   331'475'493  4'295'475

Vivification       Clauses  Decisions  LitTrue  Subsumed  LitRemoved  DecisionReused  Conflicts
  'default_lp':  1'212'818  6'644'797        4    19'992     226'844         377'493      2'279
      'max_lp':  1'421'767  8'073'379        1    22'068     248'082         418'209      2'279
       'no_lp':    346'123  2'917'819        0    22'224     316'179          96'392      1'886

Clause deletion    at_true  l_and_not(l)  to_binary  sub_conflict  sub_extra  sub_decisions  sub_eager  sub_vivify  sub_probing  sub_inpro  blocked  eliminated   forgotten    promoted   conflicts
    'default_lp':    3'695            13         15        84'866        582          3'128      1'136      19'992        2'687     15'521        0           0     113'793     434'354     226'447
        'max_lp':    3'740            16         18        50'014        407          1'565        532      22'068        2'309     11'930        0           0      84'438     313'282     158'604
         'no_lp':    7'902            48         18     4'220'397     36'529        200'576     75'078      22'224        6'570     96'135        0           0  11'610'804  37'341'215  16'434'119

Lp stats         Component  Iterations  AddedCuts  OPTIMAL  DUAL_F.  DUAL_U.
  'default_lp':          1  27'280'586    102'422  310'746        2  148'086
      'max_lp':          1  13'392'180    111'598   53'830  127'260   34'139

Lp dimension        Final dimension of first component
  'default_lp':   488 rows, 372 columns, 19281 entries
      'max_lp':  1607 rows, 520 columns, 30466 entries

Lp debug         CutPropag  CutEqPropag   Adjust  Overflow        Bad  BadScaling
  'default_lp':          0          117  148'084         0  2'675'308           0
      'max_lp':          0           91   34'121         0  3'207'629           0

Lp pool          Constraints  Updates  Simplif  Merged  Shortened  Split  Strengthened        Cuts/Call
  'default_lp':       10'229   21'985        0       0        535      0             0  102'422/172'939
      'max_lp':       12'868   42'502        0       3        476      0         2'764  111'598/210'055

Lp Cut            default_lp  max_lp
          CG_FF:       1'295     135
           CG_K:         709       9
          CG_KL:         652       5
           CG_R:       1'399      76
          CG_RB:          21       6
         CG_RBP:           2       1
         Clique:           -     209
             IB:         145      42
       MIR_1_FF:         873   1'163
        MIR_1_K:         240      38
       MIR_1_KL:         578      48
        MIR_1_R:         791     538
       MIR_1_RB:           2       1
      MIR_1_RLT:           -  12'090
       MIR_2_FF:         786   1'087
        MIR_2_K:         189     221
       MIR_2_KL:         439     105
        MIR_2_R:         885   1'108
       MIR_2_RB:          12       2
      MIR_2_RBP:          10       2
       MIR_3_FF:         380     270
        MIR_3_K:          76      45
       MIR_3_KL:         120      21
        MIR_3_R:         494     366
       MIR_3_RB:          25       1
      MIR_3_RBP:          21       8
       MIR_4_FF:         185      97
        MIR_4_K:          34      26
       MIR_4_KL:          69       7
        MIR_4_R:         416     317
       MIR_4_RB:          20       1
      MIR_4_RBP:          19      17
       MIR_5_FF:          53      35
        MIR_5_K:           7       3
       MIR_5_KL:           9       -
        MIR_5_R:         265     299
       MIR_5_RB:          14       -
      MIR_5_RBP:          21       9
       MIR_6_FF:          25       9
        MIR_6_K:           6       4
       MIR_6_KL:           2       -
        MIR_6_R:         187     303
       MIR_6_RB:           8       1
      MIR_6_RBP:           6      16
   ZERO_HALF_FF:         501     914
    ZERO_HALF_K:         196      84
   ZERO_HALF_KL:         165       6
    ZERO_HALF_R:      89'957  91'802
   ZERO_HALF_RB:          35       4
  ZERO_HALF_RBP:          78      47

LNS stats       Improv/Calls  Closed  Difficulty  TimeLimit
  'rins/rens':   11018/11018     50%    7.53e-01       0.10

LS stats                                    Batches  Restarts/Perturbs    LinMoves    GenMoves  CompoundMoves  Bactracks  WeightUpdates  ScoreComputed
                             'fj_restart':    1'013                116  29'534'826           0              0          0     26'530'290     65'402'886
                    'fj_restart_compound':      513                101           0   6'505'769        296'803  3'104'291         14'078     98'951'540
                'fj_restart_compound_obj':      443                127           0   5'491'453        314'578  2'588'184         11'219     85'477'053
            'fj_restart_compound_perturb':      861                123           0  10'747'676        366'866  5'190'188         27'996    165'711'456
        'fj_restart_compound_perturb_obj':      472                126           0   5'872'691        326'636  2'772'794         11'973     91'102'812
                       'fj_restart_decay':      632                131  22'289'211           0              0          0        914'851     17'246'023
              'fj_restart_decay_compound':      583                105           0   8'119'430      1'236'468  3'441'187          7'498    114'222'614
          'fj_restart_decay_compound_obj':      399                126           0   5'295'635        818'500  2'238'264          5'251     78'192'812
      'fj_restart_decay_compound_perturb':      447                102           0   6'089'798        930'955  2'579'202          5'773     87'633'531
  'fj_restart_decay_compound_perturb_obj':      493                122           0   6'728'560      1'021'497  2'853'213          6'414     96'366'463
                   'fj_restart_decay_obj':      370                122  13'010'833           0              0          0        535'752     10'086'432
               'fj_restart_decay_perturb':      469                112  16'553'260           0              0          0        678'466     12'785'047
           'fj_restart_decay_perturb_obj':      374                117  13'177'921           0              0          0        541'218     10'194'611
                         'fj_restart_obj':      643                112  17'075'873           0              0          0     16'901'123     42'388'200
                     'fj_restart_perturb':      450                119  12'846'858           0              0          0     11'475'648     27'461'520
                 'fj_restart_perturb_obj':      497                138  14'474'447           0              0          0     12'647'318     31'187'387

Solution repositories    Added  Queried  Synchro
    'alternative_path':      0        0        0
      'best_solutions':      0        0        0
   'fj solution hints':  1'891        0    1'891
        'lp solutions':  1'722   11'019    1'714
                'pump':      0        0

Improving bounds shared    Num  Sym
            'default_lp':    7    0
                'max_lp':   12    0

Clauses shared    #Exported  #Imported  #BinaryRead  #BinaryTotal
   'default_lp':      5'408     82'429          185           185
       'max_lp':      5'301     82'270          185           185
        'no_lp':     78'987     11'001          185           185

LRAT_status: NA
CpSolverResponse summary:
status: UNKNOWN
objective: NA
best_bound: NA
integers: 372
booleans: 509
conflicts: 226447
branches: 7163445
propagations: 87368208
integer_propagations: 89145437
restarts: 1260
lp_iterations: 27280586
walltime: 2500.04
usertime: 2500.04
deterministic_time: 11990.1
gap_integral: 0

{
  "board_size": 22,
  "parity_proved": 0,
  "target": 34,
  "child_id": 1138,
  "child_count": 2640,
  "partition": "unknown_pair_x_diag_plus_twos_x_diag_minus_twos",
  "build_seconds": 0.08106470108032227,
  "workers": 4,
  "requested_seed": 2026073238,
  "effective_seed": 2026073238,
  "main_diagonal_pair": [
    2,
    19
  ],
  "pair_index": 56,
  "diag_plus_twos": 17,
  "diag_minus_twos": 16,
  "pair_excess": 0,
  "residual_certificate_slack": 112,
  "analytic_minimum_line_defect": 0,
  "analytic_defect_details": {
    "row_costs": {
      "12": 6,
      "13": 3,
      "14": 0,
      "15": 0,
      "16": 0,
      "17": 0
    },
    "column_costs": {
      "12": 6,
      "13": 3,
      "14": 0,
      "15": 0,
      "16": 0,
      "17": 0
    },
    "plus_cost": 0,
    "minus_cost": 0,
    "row_column_minimum": 0
  },
  "maximal_line_constraints": 2455,
  "analytic_infeasible": false,
  "allowed_points": 242,
  "status": "UNKNOWN",
  "proof_method": "cp_sat_all_lines_with_certificate_profile_cuts",
  "elapsed_seconds": 2500.0441422462463,
  "branches": 7163445,
  "conflicts": 226447
}
